tsp_instances/TSP50/instance43.tsp
NODE_COORD_SECTION
0 41 137
1 114 78
2 25 69
3 166 42
4 162 17
5 178 153
6 49 104
7 114 24
8 169 168
9 130 195
10 81 21
11 100 104
12 127 113
13 199 44
14 170 14
15 70 7
16 146 21
17 72 47
18 4 70
19 113 151
20 156 92
21 130 199
22 113 159
23 99 145
24 101 163
25 134 81
26 151 162
27 136 82
28 140 28
29 134 21
30 170 195
31 128 75
32 139 175
33 85 140
34 105 65
35 70 60
36 198 47
37 97 186
38 28 159
39 164 176
40 104 189
41 181 51
42 40 199
43 134 14
44 75 191
45 102 171
46 27 35
47 17 46
48 167 72
49 154 174
