tsp_instances/TSP50/instance43.opt.tour
TOUR_SECTION
1
7
3
19
48
47
36
18
16
11
8
44
30
29
17
5
15
4
14
37
42
49
21
28
26
32
35
2
13
12
34
24
20
23
25
46
33
50
27
6
9
40
31
22
10
41
38
45
43
39
-1